p cnf 21 57
4 8 13 0
7 12 18 0
11 17 24 0
16 23 31 0
22 30 39 0
29 38 48 0
37 47 58 0
-4 -8 0
-4 -13 0
-7 -12 0
-7 -18 0
-11 -17 0
-11 -24 0
-16 -23 0
-16 -31 0
-22 -30 0
-22 -39 0
-29 -38 0
-29 -48 0
-37 -47 0
-37 -58 0
-4 -7 0
-8 -12 0
-13 -18 0
-4 -16 0
-8 -23 0
-13 -31 0
-4 -22 0
-8 -30 0
-13 -39 0
-7 -11 0
-12 -17 0
-18 -24 0
-7 -22 0
-12 -30 0
-18 -39 0
-7 -29 0
-12 -38 0
-18 -48 0
-7 -37 0
-12 -47 0
-18 -58 0
-11 -37 0
-17 -47 0
-24 -58 0
-16 -22 0
-23 -30 0
-31 -39 0
-16 -37 0
-23 -47 0
-31 -58 0
-22 -37 0
-30 -47 0
-39 -58 0
-29 -37 0
-38 -47 0
-48 -58 0
